# Objective value = -60
P_0_0 0
N_0_0 0
P_0_1 1
N_0_1 0
P_0_2 0
N_0_2 0
P_0_3 0
N_0_3 0
P_0_4 0
N_0_4 0
P_0_5 0
N_0_5 0
P_0_6 0
N_0_6 0
P_0_7 0
N_0_7 0
P_0_8 0
N_0_8 0
P_0_9 0
N_0_9 0
P_0_10 0
N_0_10 0
P_0_11 0
N_0_11 0
P_0_12 0
N_0_12 0
P_0_13 0
N_0_13 0
P_0_14 0
N_0_14 1
P_0_15 0
N_0_15 0
P_1_0 0
N_1_0 0
P_1_1 0
N_1_1 0
P_1_2 0
N_1_2 0
P_1_3 0
N_1_3 0
P_1_4 1
N_1_4 0
P_1_5 0
N_1_5 0
P_1_6 0
N_1_6 0
P_1_7 0
N_1_7 0
P_1_8 0
N_1_8 0
P_1_9 0
N_1_9 0
P_1_10 0
N_1_10 0
P_1_11 0
N_1_11 0
P_1_12 0
N_1_12 0
P_1_13 0
N_1_13 0
P_1_14 0
N_1_14 0
P_1_15 0
N_1_15 1
P_2_0 0
N_2_0 1
P_2_1 0
N_2_1 0
P_2_2 0
N_2_2 0
P_2_3 1
N_2_3 0
P_2_4 0
N_2_4 0
P_2_5 0
N_2_5 0
P_2_6 0
N_2_6 0
P_2_7 0
N_2_7 0
P_2_8 0
N_2_8 0
P_2_9 0
N_2_9 0
P_2_10 0
N_2_10 0
P_2_11 0
N_2_11 0
P_2_12 0
N_2_12 0
P_2_13 0
N_2_13 0
P_2_14 0
N_2_14 0
P_2_15 0
N_2_15 0
P_3_0 0
N_3_0 0
P_3_1 0
N_3_1 0
P_3_2 0
N_3_2 0
P_3_3 0
N_3_3 1
P_3_4 0
N_3_4 0
P_3_5 1
N_3_5 0
P_3_6 0
N_3_6 0
P_3_7 0
N_3_7 0
P_3_8 0
N_3_8 0
P_3_9 0
N_3_9 0
P_3_10 0
N_3_10 0
P_3_11 0
N_3_11 0
P_3_12 0
N_3_12 0
P_3_13 0
N_3_13 0
P_3_14 0
N_3_14 0
P_3_15 0
N_3_15 0
P_4_0 0
N_4_0 0
P_4_1 0
N_4_1 0
P_4_2 0
N_4_2 0
P_4_3 0
N_4_3 0
P_4_4 0
N_4_4 0
P_4_5 0
N_4_5 1
P_4_6 1
N_4_6 0
P_4_7 0
N_4_7 0
P_4_8 0
N_4_8 0
P_4_9 0
N_4_9 0
P_4_10 0
N_4_10 0
P_4_11 0
N_4_11 0
P_4_12 0
N_4_12 0
P_4_13 0
N_4_13 0
P_4_14 0
N_4_14 0
P_4_15 0
N_4_15 0
P_5_0 1
N_5_0 0
P_5_1 0
N_5_1 1
P_5_2 0
N_5_2 0
P_5_3 0
N_5_3 0
P_5_4 0
N_5_4 0
P_5_5 0
N_5_5 0
P_5_6 0
N_5_6 0
P_5_7 0
N_5_7 0
P_5_8 0
N_5_8 0
P_5_9 0
N_5_9 0
P_5_10 0
N_5_10 0
P_5_11 0
N_5_11 0
P_5_12 0
N_5_12 0
P_5_13 0
N_5_13 0
P_5_14 0
N_5_14 0
P_5_15 0
N_5_15 0
P_6_0 0
N_6_0 0
P_6_1 0
N_6_1 0
P_6_2 0
N_6_2 0
P_6_3 0
N_6_3 0
P_6_4 0
N_6_4 1
P_6_5 0
N_6_5 0
P_6_6 0
N_6_6 0
P_6_7 0
N_6_7 0
P_6_8 1
N_6_8 0
P_6_9 0
N_6_9 0
P_6_10 0
N_6_10 0
P_6_11 0
N_6_11 0
P_6_12 0
N_6_12 0
P_6_13 0
N_6_13 0
P_6_14 0
N_6_14 0
P_6_15 0
N_6_15 0
P_7_0 0
N_7_0 0
P_7_1 0
N_7_1 0
P_7_2 0
N_7_2 0
P_7_3 0
N_7_3 0
P_7_4 0
N_7_4 0
P_7_5 0
N_7_5 0
P_7_6 0
N_7_6 1
P_7_7 0
N_7_7 0
P_7_8 0
N_7_8 0
P_7_9 0
N_7_9 0
P_7_10 0
N_7_10 0
P_7_11 0
N_7_11 0
P_7_12 0
N_7_12 0
P_7_13 0
N_7_13 0
P_7_14 0
N_7_14 0
P_7_15 1
N_7_15 0
P_8_0 0
N_8_0 0
P_8_1 0
N_8_1 0
P_8_2 0
N_8_2 0
P_8_3 0
N_8_3 0
P_8_4 0
N_8_4 0
P_8_5 0
N_8_5 0
P_8_6 0
N_8_6 0
P_8_7 1
N_8_7 0
P_8_8 0
N_8_8 0
P_8_9 0
N_8_9 0
P_8_10 0
N_8_10 1
P_8_11 0
N_8_11 0
P_8_12 0
N_8_12 0
P_8_13 0
N_8_13 0
P_8_14 0
N_8_14 0
P_8_15 0
N_8_15 0
P_9_0 0
N_9_0 0
P_9_1 0
N_9_1 0
P_9_2 0
N_9_2 1
P_9_3 0
N_9_3 0
P_9_4 0
N_9_4 0
P_9_5 0
N_9_5 0
P_9_6 0
N_9_6 0
P_9_7 0
N_9_7 0
P_9_8 0
N_9_8 0
P_9_9 0
N_9_9 0
P_9_10 1
N_9_10 0
P_9_11 0
N_9_11 0
P_9_12 0
N_9_12 0
P_9_13 0
N_9_13 0
P_9_14 0
N_9_14 0
P_9_15 0
N_9_15 0
P_10_0 0
N_10_0 0
P_10_1 0
N_10_1 0
P_10_2 1
N_10_2 0
P_10_3 0
N_10_3 0
P_10_4 0
N_10_4 0
P_10_5 0
N_10_5 0
P_10_6 0
N_10_6 0
P_10_7 0
N_10_7 0
P_10_8 0
N_10_8 0
P_10_9 0
N_10_9 0
P_10_10 0
N_10_10 0
P_10_11 0
N_10_11 0
P_10_12 0
N_10_12 0
P_10_13 0
N_10_13 1
P_10_14 0
N_10_14 0
P_10_15 0
N_10_15 0
P_11_0 0
N_11_0 0
P_11_1 0
N_11_1 0
P_11_2 0
N_11_2 0
P_11_3 0
N_11_3 0
P_11_4 0
N_11_4 0
P_11_5 0
N_11_5 0
P_11_6 0
N_11_6 0
P_11_7 0
N_11_7 0
P_11_8 0
N_11_8 0
P_11_9 0
N_11_9 0
P_11_10 0
N_11_10 0
P_11_11 0
N_11_11 0
P_11_12 1
N_11_12 1
P_11_13 0
N_11_13 0
P_11_14 0
N_11_14 0
P_11_15 0
N_11_15 0
P_12_0 0
N_12_0 0
P_12_1 0
N_12_1 0
P_12_2 0
N_12_2 0
P_12_3 0
N_12_3 0
P_12_4 0
N_12_4 0
P_12_5 0
N_12_5 0
P_12_6 0
N_12_6 0
P_12_7 0
N_12_7 0
P_12_8 0
N_12_8 0
P_12_9 0
N_12_9 1
P_12_10 0
N_12_10 0
P_12_11 1
N_12_11 0
P_12_12 0
N_12_12 0
P_12_13 0
N_12_13 0
P_12_14 0
N_12_14 0
P_12_15 0
N_12_15 0
P_13_0 0
N_13_0 0
P_13_1 0
N_13_1 0
P_13_2 0
N_13_2 0
P_13_3 0
N_13_3 0
P_13_4 0
N_13_4 0
P_13_5 0
N_13_5 0
P_13_6 0
N_13_6 0
P_13_7 0
N_13_7 1
P_13_8 0
N_13_8 0
P_13_9 0
N_13_9 0
P_13_10 0
N_13_10 0
P_13_11 0
N_13_11 0
P_13_12 0
N_13_12 0
P_13_13 0
N_13_13 0
P_13_14 1
N_13_14 0
P_13_15 0
N_13_15 0
P_14_0 0
N_14_0 0
P_14_1 0
N_14_1 0
P_14_2 0
N_14_2 0
P_14_3 0
N_14_3 0
P_14_4 0
N_14_4 0
P_14_5 0
N_14_5 0
P_14_6 0
N_14_6 0
P_14_7 0
N_14_7 0
P_14_8 0
N_14_8 0
P_14_9 1
N_14_9 0
P_14_10 0
N_14_10 0
P_14_11 0
N_14_11 1
P_14_12 0
N_14_12 0
P_14_13 0
N_14_13 0
P_14_14 0
N_14_14 0
P_14_15 0
N_14_15 0
P_15_0 0
N_15_0 0
P_15_1 0
N_15_1 0
P_15_2 0
N_15_2 0
P_15_3 0
N_15_3 0
P_15_4 0
N_15_4 0
P_15_5 0
N_15_5 0
P_15_6 0
N_15_6 0
P_15_7 0
N_15_7 0
P_15_8 0
N_15_8 1
P_15_9 0
N_15_9 0
P_15_10 0
N_15_10 0
P_15_11 0
N_15_11 0
P_15_12 0
N_15_12 0
P_15_13 1
N_15_13 0
P_15_14 0
N_15_14 0
P_15_15 0
N_15_15 0
Pair_0_1_0 0
Pair_0_1_1 0
Pair_0_1_2 0
Pair_0_1_3 0
Pair_0_1_4 0
Pair_0_1_5 0
Pair_0_1_6 0
Pair_0_1_7 0
Pair_0_1_8 0
Pair_0_1_9 0
Pair_0_1_10 0
Pair_0_1_11 0
Pair_0_1_12 0
Pair_0_1_13 0
Pair_0_1_14 0
Pair_0_1_15 0
Pair_0_5_0 0
Pair_0_5_1 1
Pair_0_5_2 0
Pair_0_5_3 0
Pair_0_5_4 0
Pair_0_5_5 0
Pair_0_5_6 0
Pair_0_5_7 0
Pair_0_5_8 0
Pair_0_5_9 0
Pair_0_5_10 0
Pair_0_5_11 0
Pair_0_5_12 0
Pair_0_5_13 0
Pair_0_5_14 0
Pair_0_5_15 0
Pair_0_9_0 0
Pair_0_9_1 0
Pair_0_9_2 0
Pair_0_9_3 0
Pair_0_9_4 0
Pair_0_9_5 0
Pair_0_9_6 0
Pair_0_9_7 0
Pair_0_9_8 0
Pair_0_9_9 0
Pair_0_9_10 0
Pair_0_9_11 0
Pair_0_9_12 0
Pair_0_9_13 0
Pair_0_9_14 0
Pair_0_9_15 0
Pair_0_10_0 0
Pair_0_10_1 0
Pair_0_10_2 0
Pair_0_10_3 0
Pair_0_10_4 0
Pair_0_10_5 0
Pair_0_10_6 0
Pair_0_10_7 0
Pair_0_10_8 0
Pair_0_10_9 0
Pair_0_10_10 0
Pair_0_10_11 0
Pair_0_10_12 0
Pair_0_10_13 0
Pair_0_10_14 0
Pair_0_10_15 0
Pair_1_2_0 0
Pair_1_2_1 0
Pair_1_2_2 0
Pair_1_2_3 0
Pair_1_2_4 0
Pair_1_2_5 0
Pair_1_2_6 0
Pair_1_2_7 0
Pair_1_2_8 0
Pair_1_2_9 0
Pair_1_2_10 0
Pair_1_2_11 0
Pair_1_2_12 0
Pair_1_2_13 0
Pair_1_2_14 0
Pair_1_2_15 0
Pair_1_6_0 0
Pair_1_6_1 0
Pair_1_6_2 0
Pair_1_6_3 0
Pair_1_6_4 1
Pair_1_6_5 0
Pair_1_6_6 0
Pair_1_6_7 0
Pair_1_6_8 0
Pair_1_6_9 0
Pair_1_6_10 0
Pair_1_6_11 0
Pair_1_6_12 0
Pair_1_6_13 0
Pair_1_6_14 0
Pair_1_6_15 0
Pair_1_12_0 0
Pair_1_12_1 0
Pair_1_12_2 0
Pair_1_12_3 0
Pair_1_12_4 0
Pair_1_12_5 0
Pair_1_12_6 0
Pair_1_12_7 0
Pair_1_12_8 0
Pair_1_12_9 0
Pair_1_12_10 0
Pair_1_12_11 0
Pair_1_12_12 0
Pair_1_12_13 0
Pair_1_12_14 0
Pair_1_12_15 0
Pair_1_14_0 0
Pair_1_14_1 0
Pair_1_14_2 0
Pair_1_14_3 0
Pair_1_14_4 0
Pair_1_14_5 0
Pair_1_14_6 0
Pair_1_14_7 0
Pair_1_14_8 0
Pair_1_14_9 0
Pair_1_14_10 0
Pair_1_14_11 0
Pair_1_14_12 0
Pair_1_14_13 0
Pair_1_14_14 0
Pair_1_14_15 0
Pair_2_3_0 0
Pair_2_3_1 0
Pair_2_3_2 0
Pair_2_3_3 1
Pair_2_3_4 0
Pair_2_3_5 0
Pair_2_3_6 0
Pair_2_3_7 0
Pair_2_3_8 0
Pair_2_3_9 0
Pair_2_3_10 0
Pair_2_3_11 0
Pair_2_3_12 0
Pair_2_3_13 0
Pair_2_3_14 0
Pair_2_3_15 0
Pair_2_7_0 0
Pair_2_7_1 0
Pair_2_7_2 0
Pair_2_7_3 0
Pair_2_7_4 0
Pair_2_7_5 0
Pair_2_7_6 0
Pair_2_7_7 0
Pair_2_7_8 0
Pair_2_7_9 0
Pair_2_7_10 0
Pair_2_7_11 0
Pair_2_7_12 0
Pair_2_7_13 0
Pair_2_7_14 0
Pair_2_7_15 0
Pair_2_13_0 0
Pair_2_13_1 0
Pair_2_13_2 0
Pair_2_13_3 0
Pair_2_13_4 0
Pair_2_13_5 0
Pair_2_13_6 0
Pair_2_13_7 0
Pair_2_13_8 0
Pair_2_13_9 0
Pair_2_13_10 0
Pair_2_13_11 0
Pair_2_13_12 0
Pair_2_13_13 0
Pair_2_13_14 0
Pair_2_13_15 0
Pair_2_15_0 0
Pair_2_15_1 0
Pair_2_15_2 0
Pair_2_15_3 0
Pair_2_15_4 0
Pair_2_15_5 0
Pair_2_15_6 0
Pair_2_15_7 0
Pair_2_15_8 0
Pair_2_15_9 0
Pair_2_15_10 0
Pair_2_15_11 0
Pair_2_15_12 0
Pair_2_15_13 0
Pair_2_15_14 0
Pair_2_15_15 0
Pair_3_0_0 0
Pair_3_0_1 0
Pair_3_0_2 0
Pair_3_0_3 0
Pair_3_0_4 0
Pair_3_0_5 0
Pair_3_0_6 0
Pair_3_0_7 0
Pair_3_0_8 0
Pair_3_0_9 0
Pair_3_0_10 0
Pair_3_0_11 0
Pair_3_0_12 0
Pair_3_0_13 0
Pair_3_0_14 0
Pair_3_0_15 0
Pair_3_4_0 0
Pair_3_4_1 0
Pair_3_4_2 0
Pair_3_4_3 0
Pair_3_4_4 0
Pair_3_4_5 1
Pair_3_4_6 0
Pair_3_4_7 0
Pair_3_4_8 0
Pair_3_4_9 0
Pair_3_4_10 0
Pair_3_4_11 0
Pair_3_4_12 0
Pair_3_4_13 0
Pair_3_4_14 0
Pair_3_4_15 0
Pair_3_8_0 0
Pair_3_8_1 0
Pair_3_8_2 0
Pair_3_8_3 0
Pair_3_8_4 0
Pair_3_8_5 0
Pair_3_8_6 0
Pair_3_8_7 0
Pair_3_8_8 0
Pair_3_8_9 0
Pair_3_8_10 0
Pair_3_8_11 0
Pair_3_8_12 0
Pair_3_8_13 0
Pair_3_8_14 0
Pair_3_8_15 0
Pair_3_11_0 0
Pair_3_11_1 0
Pair_3_11_2 0
Pair_3_11_3 0
Pair_3_11_4 0
Pair_3_11_5 0
Pair_3_11_6 0
Pair_3_11_7 0
Pair_3_11_8 0
Pair_3_11_9 0
Pair_3_11_10 0
Pair_3_11_11 0
Pair_3_11_12 0
Pair_3_11_13 0
Pair_3_11_14 0
Pair_3_11_15 0
Pair_4_3_0 0
Pair_4_3_1 0
Pair_4_3_2 0
Pair_4_3_3 0
Pair_4_3_4 0
Pair_4_3_5 0
Pair_4_3_6 0
Pair_4_3_7 0
Pair_4_3_8 0
Pair_4_3_9 0
Pair_4_3_10 0
Pair_4_3_11 0
Pair_4_3_12 0
Pair_4_3_13 0
Pair_4_3_14 0
Pair_4_3_15 0
Pair_4_7_0 0
Pair_4_7_1 0
Pair_4_7_2 0
Pair_4_7_3 0
Pair_4_7_4 0
Pair_4_7_5 0
Pair_4_7_6 1
Pair_4_7_7 0
Pair_4_7_8 0
Pair_4_7_9 0
Pair_4_7_10 0
Pair_4_7_11 0
Pair_4_7_12 0
Pair_4_7_13 0
Pair_4_7_14 0
Pair_4_7_15 0
Pair_4_13_0 0
Pair_4_13_1 0
Pair_4_13_2 0
Pair_4_13_3 0
Pair_4_13_4 0
Pair_4_13_5 0
Pair_4_13_6 0
Pair_4_13_7 0
Pair_4_13_8 0
Pair_4_13_9 0
Pair_4_13_10 0
Pair_4_13_11 0
Pair_4_13_12 0
Pair_4_13_13 0
Pair_4_13_14 0
Pair_4_13_15 0
Pair_4_15_0 0
Pair_4_15_1 0
Pair_4_15_2 0
Pair_4_15_3 0
Pair_4_15_4 0
Pair_4_15_5 0
Pair_4_15_6 0
Pair_4_15_7 0
Pair_4_15_8 0
Pair_4_15_9 0
Pair_4_15_10 0
Pair_4_15_11 0
Pair_4_15_12 0
Pair_4_15_13 0
Pair_4_15_14 0
Pair_4_15_15 0
Pair_5_2_0 1
Pair_5_2_1 0
Pair_5_2_2 0
Pair_5_2_3 0
Pair_5_2_4 0
Pair_5_2_5 0
Pair_5_2_6 0
Pair_5_2_7 0
Pair_5_2_8 0
Pair_5_2_9 0
Pair_5_2_10 0
Pair_5_2_11 0
Pair_5_2_12 0
Pair_5_2_13 0
Pair_5_2_14 0
Pair_5_2_15 0
Pair_5_6_0 0
Pair_5_6_1 0
Pair_5_6_2 0
Pair_5_6_3 0
Pair_5_6_4 0
Pair_5_6_5 0
Pair_5_6_6 0
Pair_5_6_7 0
Pair_5_6_8 0
Pair_5_6_9 0
Pair_5_6_10 0
Pair_5_6_11 0
Pair_5_6_12 0
Pair_5_6_13 0
Pair_5_6_14 0
Pair_5_6_15 0
Pair_5_12_0 0
Pair_5_12_1 0
Pair_5_12_2 0
Pair_5_12_3 0
Pair_5_12_4 0
Pair_5_12_5 0
Pair_5_12_6 0
Pair_5_12_7 0
Pair_5_12_8 0
Pair_5_12_9 0
Pair_5_12_10 0
Pair_5_12_11 0
Pair_5_12_12 0
Pair_5_12_13 0
Pair_5_12_14 0
Pair_5_12_15 0
Pair_5_14_0 0
Pair_5_14_1 0
Pair_5_14_2 0
Pair_5_14_3 0
Pair_5_14_4 0
Pair_5_14_5 0
Pair_5_14_6 0
Pair_5_14_7 0
Pair_5_14_8 0
Pair_5_14_9 0
Pair_5_14_10 0
Pair_5_14_11 0
Pair_5_14_12 0
Pair_5_14_13 0
Pair_5_14_14 0
Pair_5_14_15 0
